3 
4  39 54 
5  08 26 44 
6  04 19 34 46 
7  01 16 31 46 
8  01 16 31 46 
9  01 16 31 46 
10  01 16 31 46 
11  01 16 31 46 
12  01 16 31 46 
13  01 17 32 47 
14  02 17 32 47 
15  02 17 32 47 
16  02 17 32 47 
17  02 17 32 47 
18  02 17 32 47 
19  02 16 31 46 
20  01 16 31 46 
21  01 16 31 46 
22  01 16 31 46 
23  01 14 36 
0 
